# 73717
param k := 5;
param n := 60;
param s := 2;
set E :=  (0,16) (0,44) (1,50) (1,54) (2,25) (2,57) (2,58) (3,16) (4,38) (4,50) (4,58) (5,17) (5,33) (5,37) (5,41) (5,52) (6,26) (7,17) (7,46) (8,29) (8,40) (8,43) (8,45) (9,26) (9,34) (10,11) (10,22) (10,48) (11,59) (12,38) (13,35) (13,40) (14,51) (14,56) (15,28) (15,40) (15,52) (16,36) (16,56) (17,59) (18,45) (19,38) (19,53) (20,26) (20,59) (21,47) (21,55) (23,48) (24,49) (24,55) (26,57) (27,31) (27,44) (27,50) (28,56) (30,31) (31,39) (32,44) (32,55) (34,50) (36,40) (39,41) (39,45) (39,54) (40,53) (42,53) (43,46) (44,49) (44,54) (46,57) (48,53) (49,51) (49,55);